NAME: prueba1
TYPE : TSP
DIMENSION: 100
EDGE_WEIGHT_TYPE: GEO
NODE_COORD_SECTION
0 30.364082161207186 86.87082343512992
1 42.98758637543436 80.17885079370352
2 75.30691415255274 42.66782015195278
3 49.42650804594546 77.24665423481441
4 79.62696805382839 92.78436687740466
5 88.19380734910553 32.05582755043832
6 36.14323697210422 59.668905066738496
7 38.70966109163574 49.340888146770745
8 31.022703062119273 85.62181306907839
9 69.18953142733123 30.12673084913584
10 32.04625808121566 30.229301181071367
11 16.747842061406516 16.739469785201464
12 61.28939987852869 33.154621301829735
13 44.71578015123718 13.515500032918837
14 3.4658555580720063 18.656820076417013
15 3.860869460101324 5.721513097417141
16 46.592474063777466 36.2736784023852
17 71.1685952621546 81.32729282615729
18 25.168858355751 3.2968821004957682
19 64.94400710214703 45.52682260177542
20 37.72538044957764 38.98390759058843
21 38.213898173584305 6.282309036330458
22 40.378378789578285 57.89245590672595
23 33.75778081799764 0.669534159412366
24 75.94147076201921 20.289730988035593
25 43.56862378953219 26.43188361665484
26 84.17709962132734 21.28021186578404
27 53.14183382555824 40.90432856417993
28 52.93257933393791 37.11203814069823
29 66.71374643400351 90.34749074269025
30 12.190053504443155 37.0634636678713
31 3.4185020475758665 36.73587692660079
32 43.46994265699057 12.377280508929134
33 26.304792187115044 56.17326516587754
34 75.56260727058302 69.90254731261135
35 16.25170907212763 93.36209822402746
36 64.22312744203496 87.41928244845393
37 31.04550829173508 69.93268324227805
38 8.249223839381825 30.063261724058542
39 96.22679423690971 60.94190214892007
40 37.272540901044515 82.83445196567915
41 58.79028020081978 73.48000617417831
42 17.628630040174908 62.863974739200124
43 97.41693090392755 84.07801476376466
44 61.83116588165783 36.930969104932245
45 23.64094532267216 17.48713307823645
46 94.46104284879796 84.66205670539259
47 27.20172828872396 78.40549974484418
48 22.691180249270314 15.912595762887138
49 15.803593289234241 79.85648057393682
50 83.2030488005843 72.02022978889634
51 74.60366273487399 47.17664946436382
52 88.91100852539458 14.93773470668096
53 23.971030861902975 14.95050148830056
54 78.69578386727294 35.69348703431052
55 85.40795787491565 75.73280728413665
56 81.25852105655095 94.1943525337111
57 74.99648416364492 84.0284958784637
58 40.24202122493444 36.07717002212978
59 31.33152902106491 66.75379754550562
60 11.925933937821542 19.131392114444033
61 50.62419325510062 42.281311321850914
62 39.087803024757164 21.756888221489334
63 45.50663283356757 4.1755641167850355
64 25.032070576090614 98.98731831348951
65 66.04252166234376 82.85455959852472
66 80.3242422202525 97.80083982805601
67 21.544830904514278 58.66663810354289
68 91.42761187785278 42.75640092358757
69 20.025191915560082 63.251010045373356
70 65.22510597580565 55.43520004779592
71 98.44691501049329 72.5540840117812
72 36.31892069574755 76.73335700107862
73 51.42627790195027 64.502738277943
74 85.03582831681426 19.74319696627932
75 78.62438553557236 87.08951889230373
76 3.226141279449868 92.77700496627762
77 61.79460010985047 58.50367342324222
78 62.22955088035449 97.02847912443467
79 51.298140503738985 99.94585301126989
80 82.79109901537231 21.43352061982601
81 88.87312103976168 83.89318290902752
82 80.24583570132651 28.48343293837312
83 18.53998981909003 65.8353666917921
84 59.950724297608126 49.05995563408151
85 40.74895333166937 55.881307405516964
86 67.72767198981887 81.80304290832467
87 46.222597763661874 78.13975175500767
88 57.991553381719385 23.088603455212397
89 25.419669526485745 60.40625143742822
90 28.27239475761165 37.38493561797197
91 87.14351976019816 94.44273146042437
92 83.00095928328365 14.57288137069549
93 35.541465661293124 8.014804102107131
94 31.712137994615862 50.75624144741613
95 48.588923783759164 93.85590898065462
96 97.23075274459629 32.155315913058566
97 73.124843029305 47.85625741368188
98 7.939472290665595 97.86787402286733
99 1.6026348623217057 79.02843819376974
EOF
